(set-logic QF_S)
(declare-fun var_0xINPUT_126277 () String)
(assert (and (= (len var_0xINPUT_126277) 0) (= (len var_0xINPUT_126277) 0) (not (= var_0xINPUT_126277 "CQALcCP5TB"))))
(check-sat var_0xINPUT_126277)